p cnf 240 2851
123 122 124 139 138 140 131 130 132 135 134 136 143 142 144 147 146 148 163 162 164 155 154 156 159 158 160 167 166 168 171 170 172 187 186 188 179 178 180 183 182 184 191 190 192 195 194 196 211 210 212 203 202 204 207 206 208 215 214 216 219 218 220 235 234 236 227 226 228 231 230 232 239 238 240 0
-123 -122 0
-123 -124 0
-123 -139 0
-123 -138 0
-123 -140 0
-123 -131 0
-123 -130 0
-123 -132 0
-123 -135 0
-123 -134 0
-123 -136 0
-123 -143 0
-123 -142 0
-123 -144 0
-123 -147 0
-123 -146 0
-123 -148 0
-123 -163 0
-123 -162 0
-123 -164 0
-123 -155 0
-123 -154 0
-123 -156 0
-123 -159 0
-123 -158 0
-123 -160 0
-123 -167 0
-123 -166 0
-123 -168 0
-123 -171 0
-123 -170 0
-123 -172 0
-123 -187 0
-123 -186 0
-123 -188 0
-123 -179 0
-123 -178 0
-123 -180 0
-123 -183 0
-123 -182 0
-123 -184 0
-123 -191 0
-123 -190 0
-123 -192 0
-123 -195 0
-123 -194 0
-123 -196 0
-123 -211 0
-123 -210 0
-123 -212 0
-123 -203 0
-123 -202 0
-123 -204 0
-123 -207 0
-123 -206 0
-123 -208 0
-123 -215 0
-123 -214 0
-123 -216 0
-123 -219 0
-123 -218 0
-123 -220 0
-123 -235 0
-123 -234 0
-123 -236 0
-123 -227 0
-123 -226 0
-123 -228 0
-123 -231 0
-123 -230 0
-123 -232 0
-123 -239 0
-123 -238 0
-123 -240 0
-122 -124 0
-122 -139 0
-122 -138 0
-122 -140 0
-122 -131 0
-122 -130 0
-122 -132 0
-122 -135 0
-122 -134 0
-122 -136 0
-122 -143 0
-122 -142 0
-122 -144 0
-122 -147 0
-122 -146 0
-122 -148 0
-122 -163 0
-122 -162 0
-122 -164 0
-122 -155 0
-122 -154 0
-122 -156 0
-122 -159 0
-122 -158 0
-122 -160 0
-122 -167 0
-122 -166 0
-122 -168 0
-122 -171 0
-122 -170 0
-122 -172 0
-122 -187 0
-122 -186 0
-122 -188 0
-122 -179 0
-122 -178 0
-122 -180 0
-122 -183 0
-122 -182 0
-122 -184 0
-122 -191 0
-122 -190 0
-122 -192 0
-122 -195 0
-122 -194 0
-122 -196 0
-122 -211 0
-122 -210 0
-122 -212 0
-122 -203 0
-122 -202 0
-122 -204 0
-122 -207 0
-122 -206 0
-122 -208 0
-122 -215 0
-122 -214 0
-122 -216 0
-122 -219 0
-122 -218 0
-122 -220 0
-122 -235 0
-122 -234 0
-122 -236 0
-122 -227 0
-122 -226 0
-122 -228 0
-122 -231 0
-122 -230 0
-122 -232 0
-122 -239 0
-122 -238 0
-122 -240 0
-124 -139 0
-124 -138 0
-124 -140 0
-124 -131 0
-124 -130 0
-124 -132 0
-124 -135 0
-124 -134 0
-124 -136 0
-124 -143 0
-124 -142 0
-124 -144 0
-124 -147 0
-124 -146 0
-124 -148 0
-124 -163 0
-124 -162 0
-124 -164 0
-124 -155 0
-124 -154 0
-124 -156 0
-124 -159 0
-124 -158 0
-124 -160 0
-124 -167 0
-124 -166 0
-124 -168 0
-124 -171 0
-124 -170 0
-124 -172 0
-124 -187 0
-124 -186 0
-124 -188 0
-124 -179 0
-124 -178 0
-124 -180 0
-124 -183 0
-124 -182 0
-124 -184 0
-124 -191 0
-124 -190 0
-124 -192 0
-124 -195 0
-124 -194 0
-124 -196 0
-124 -211 0
-124 -210 0
-124 -212 0
-124 -203 0
-124 -202 0
-124 -204 0
-124 -207 0
-124 -206 0
-124 -208 0
-124 -215 0
-124 -214 0
-124 -216 0
-124 -219 0
-124 -218 0
-124 -220 0
-124 -235 0
-124 -234 0
-124 -236 0
-124 -227 0
-124 -226 0
-124 -228 0
-124 -231 0
-124 -230 0
-124 -232 0
-124 -239 0
-124 -238 0
-124 -240 0
-139 -138 0
-139 -140 0
-139 -131 0
-139 -130 0
-139 -132 0
-139 -135 0
-139 -134 0
-139 -136 0
-139 -143 0
-139 -142 0
-139 -144 0
-139 -147 0
-139 -146 0
-139 -148 0
-139 -163 0
-139 -162 0
-139 -164 0
-139 -155 0
-139 -154 0
-139 -156 0
-139 -159 0
-139 -158 0
-139 -160 0
-139 -167 0
-139 -166 0
-139 -168 0
-139 -171 0
-139 -170 0
-139 -172 0
-139 -187 0
-139 -186 0
-139 -188 0
-139 -179 0
-139 -178 0
-139 -180 0
-139 -183 0
-139 -182 0
-139 -184 0
-139 -191 0
-139 -190 0
-139 -192 0
-139 -195 0
-139 -194 0
-139 -196 0
-139 -211 0
-139 -210 0
-139 -212 0
-139 -203 0
-139 -202 0
-139 -204 0
-139 -207 0
-139 -206 0
-139 -208 0
-139 -215 0
-139 -214 0
-139 -216 0
-139 -219 0
-139 -218 0
-139 -220 0
-139 -235 0
-139 -234 0
-139 -236 0
-139 -227 0
-139 -226 0
-139 -228 0
-139 -231 0
-139 -230 0
-139 -232 0
-139 -239 0
-139 -238 0
-139 -240 0
-138 -140 0
-138 -131 0
-138 -130 0
-138 -132 0
-138 -135 0
-138 -134 0
-138 -136 0
-138 -143 0
-138 -142 0
-138 -144 0
-138 -147 0
-138 -146 0
-138 -148 0
-138 -163 0
-138 -162 0
-138 -164 0
-138 -155 0
-138 -154 0
-138 -156 0
-138 -159 0
-138 -158 0
-138 -160 0
-138 -167 0
-138 -166 0
-138 -168 0
-138 -171 0
-138 -170 0
-138 -172 0
-138 -187 0
-138 -186 0
-138 -188 0
-138 -179 0
-138 -178 0
-138 -180 0
-138 -183 0
-138 -182 0
-138 -184 0
-138 -191 0
-138 -190 0
-138 -192 0
-138 -195 0
-138 -194 0
-138 -196 0
-138 -211 0
-138 -210 0
-138 -212 0
-138 -203 0
-138 -202 0
-138 -204 0
-138 -207 0
-138 -206 0
-138 -208 0
-138 -215 0
-138 -214 0
-138 -216 0
-138 -219 0
-138 -218 0
-138 -220 0
-138 -235 0
-138 -234 0
-138 -236 0
-138 -227 0
-138 -226 0
-138 -228 0
-138 -231 0
-138 -230 0
-138 -232 0
-138 -239 0
-138 -238 0
-138 -240 0
-140 -131 0
-140 -130 0
-140 -132 0
-140 -135 0
-140 -134 0
-140 -136 0
-140 -143 0
-140 -142 0
-140 -144 0
-140 -147 0
-140 -146 0
-140 -148 0
-140 -163 0
-140 -162 0
-140 -164 0
-140 -155 0
-140 -154 0
-140 -156 0
-140 -159 0
-140 -158 0
-140 -160 0
-140 -167 0
-140 -166 0
-140 -168 0
-140 -171 0
-140 -170 0
-140 -172 0
-140 -187 0
-140 -186 0
-140 -188 0
-140 -179 0
-140 -178 0
-140 -180 0
-140 -183 0
-140 -182 0
-140 -184 0
-140 -191 0
-140 -190 0
-140 -192 0
-140 -195 0
-140 -194 0
-140 -196 0
-140 -211 0
-140 -210 0
-140 -212 0
-140 -203 0
-140 -202 0
-140 -204 0
-140 -207 0
-140 -206 0
-140 -208 0
-140 -215 0
-140 -214 0
-140 -216 0
-140 -219 0
-140 -218 0
-140 -220 0
-140 -235 0
-140 -234 0
-140 -236 0
-140 -227 0
-140 -226 0
-140 -228 0
-140 -231 0
-140 -230 0
-140 -232 0
-140 -239 0
-140 -238 0
-140 -240 0
-131 -130 0
-131 -132 0
-131 -135 0
-131 -134 0
-131 -136 0
-131 -143 0
-131 -142 0
-131 -144 0
-131 -147 0
-131 -146 0
-131 -148 0
-131 -163 0
-131 -162 0
-131 -164 0
-131 -155 0
-131 -154 0
-131 -156 0
-131 -159 0
-131 -158 0
-131 -160 0
-131 -167 0
-131 -166 0
-131 -168 0
-131 -171 0
-131 -170 0
-131 -172 0
-131 -187 0
-131 -186 0
-131 -188 0
-131 -179 0
-131 -178 0
-131 -180 0
-131 -183 0
-131 -182 0
-131 -184 0
-131 -191 0
-131 -190 0
-131 -192 0
-131 -195 0
-131 -194 0
-131 -196 0
-131 -211 0
-131 -210 0
-131 -212 0
-131 -203 0
-131 -202 0
-131 -204 0
-131 -207 0
-131 -206 0
-131 -208 0
-131 -215 0
-131 -214 0
-131 -216 0
-131 -219 0
-131 -218 0
-131 -220 0
-131 -235 0
-131 -234 0
-131 -236 0
-131 -227 0
-131 -226 0
-131 -228 0
-131 -231 0
-131 -230 0
-131 -232 0
-131 -239 0
-131 -238 0
-131 -240 0
-130 -132 0
-130 -135 0
-130 -134 0
-130 -136 0
-130 -143 0
-130 -142 0
-130 -144 0
-130 -147 0
-130 -146 0
-130 -148 0
-130 -163 0
-130 -162 0
-130 -164 0
-130 -155 0
-130 -154 0
-130 -156 0
-130 -159 0
-130 -158 0
-130 -160 0
-130 -167 0
-130 -166 0
-130 -168 0
-130 -171 0
-130 -170 0
-130 -172 0
-130 -187 0
-130 -186 0
-130 -188 0
-130 -179 0
-130 -178 0
-130 -180 0
-130 -183 0
-130 -182 0
-130 -184 0
-130 -191 0
-130 -190 0
-130 -192 0
-130 -195 0
-130 -194 0
-130 -196 0
-130 -211 0
-130 -210 0
-130 -212 0
-130 -203 0
-130 -202 0
-130 -204 0
-130 -207 0
-130 -206 0
-130 -208 0
-130 -215 0
-130 -214 0
-130 -216 0
-130 -219 0
-130 -218 0
-130 -220 0
-130 -235 0
-130 -234 0
-130 -236 0
-130 -227 0
-130 -226 0
-130 -228 0
-130 -231 0
-130 -230 0
-130 -232 0
-130 -239 0
-130 -238 0
-130 -240 0
-132 -135 0
-132 -134 0
-132 -136 0
-132 -143 0
-132 -142 0
-132 -144 0
-132 -147 0
-132 -146 0
-132 -148 0
-132 -163 0
-132 -162 0
-132 -164 0
-132 -155 0
-132 -154 0
-132 -156 0
-132 -159 0
-132 -158 0
-132 -160 0
-132 -167 0
-132 -166 0
-132 -168 0
-132 -171 0
-132 -170 0
-132 -172 0
-132 -187 0
-132 -186 0
-132 -188 0
-132 -179 0
-132 -178 0
-132 -180 0
-132 -183 0
-132 -182 0
-132 -184 0
-132 -191 0
-132 -190 0
-132 -192 0
-132 -195 0
-132 -194 0
-132 -196 0
-132 -211 0
-132 -210 0
-132 -212 0
-132 -203 0
-132 -202 0
-132 -204 0
-132 -207 0
-132 -206 0
-132 -208 0
-132 -215 0
-132 -214 0
-132 -216 0
-132 -219 0
-132 -218 0
-132 -220 0
-132 -235 0
-132 -234 0
-132 -236 0
-132 -227 0
-132 -226 0
-132 -228 0
-132 -231 0
-132 -230 0
-132 -232 0
-132 -239 0
-132 -238 0
-132 -240 0
-135 -134 0
-135 -136 0
-135 -143 0
-135 -142 0
-135 -144 0
-135 -147 0
-135 -146 0
-135 -148 0
-135 -163 0
-135 -162 0
-135 -164 0
-135 -155 0
-135 -154 0
-135 -156 0
-135 -159 0
-135 -158 0
-135 -160 0
-135 -167 0
-135 -166 0
-135 -168 0
-135 -171 0
-135 -170 0
-135 -172 0
-135 -187 0
-135 -186 0
-135 -188 0
-135 -179 0
-135 -178 0
-135 -180 0
-135 -183 0
-135 -182 0
-135 -184 0
-135 -191 0
-135 -190 0
-135 -192 0
-135 -195 0
-135 -194 0
-135 -196 0
-135 -211 0
-135 -210 0
-135 -212 0
-135 -203 0
-135 -202 0
-135 -204 0
-135 -207 0
-135 -206 0
-135 -208 0
-135 -215 0
-135 -214 0
-135 -216 0
-135 -219 0
-135 -218 0
-135 -220 0
-135 -235 0
-135 -234 0
-135 -236 0
-135 -227 0
-135 -226 0
-135 -228 0
-135 -231 0
-135 -230 0
-135 -232 0
-135 -239 0
-135 -238 0
-135 -240 0
-134 -136 0
-134 -143 0
-134 -142 0
-134 -144 0
-134 -147 0
-134 -146 0
-134 -148 0
-134 -163 0
-134 -162 0
-134 -164 0
-134 -155 0
-134 -154 0
-134 -156 0
-134 -159 0
-134 -158 0
-134 -160 0
-134 -167 0
-134 -166 0
-134 -168 0
-134 -171 0
-134 -170 0
-134 -172 0
-134 -187 0
-134 -186 0
-134 -188 0
-134 -179 0
-134 -178 0
-134 -180 0
-134 -183 0
-134 -182 0
-134 -184 0
-134 -191 0
-134 -190 0
-134 -192 0
-134 -195 0
-134 -194 0
-134 -196 0
-134 -211 0
-134 -210 0
-134 -212 0
-134 -203 0
-134 -202 0
-134 -204 0
-134 -207 0
-134 -206 0
-134 -208 0
-134 -215 0
-134 -214 0
-134 -216 0
-134 -219 0
-134 -218 0
-134 -220 0
-134 -235 0
-134 -234 0
-134 -236 0
-134 -227 0
-134 -226 0
-134 -228 0
-134 -231 0
-134 -230 0
-134 -232 0
-134 -239 0
-134 -238 0
-134 -240 0
-136 -143 0
-136 -142 0
-136 -144 0
-136 -147 0
-136 -146 0
-136 -148 0
-136 -163 0
-136 -162 0
-136 -164 0
-136 -155 0
-136 -154 0
-136 -156 0
-136 -159 0
-136 -158 0
-136 -160 0
-136 -167 0
-136 -166 0
-136 -168 0
-136 -171 0
-136 -170 0
-136 -172 0
-136 -187 0
-136 -186 0
-136 -188 0
-136 -179 0
-136 -178 0
-136 -180 0
-136 -183 0
-136 -182 0
-136 -184 0
-136 -191 0
-136 -190 0
-136 -192 0
-136 -195 0
-136 -194 0
-136 -196 0
-136 -211 0
-136 -210 0
-136 -212 0
-136 -203 0
-136 -202 0
-136 -204 0
-136 -207 0
-136 -206 0
-136 -208 0
-136 -215 0
-136 -214 0
-136 -216 0
-136 -219 0
-136 -218 0
-136 -220 0
-136 -235 0
-136 -234 0
-136 -236 0
-136 -227 0
-136 -226 0
-136 -228 0
-136 -231 0
-136 -230 0
-136 -232 0
-136 -239 0
-136 -238 0
-136 -240 0
-143 -142 0
-143 -144 0
-143 -147 0
-143 -146 0
-143 -148 0
-143 -163 0
-143 -162 0
-143 -164 0
-143 -155 0
-143 -154 0
-143 -156 0
-143 -159 0
-143 -158 0
-143 -160 0
-143 -167 0
-143 -166 0
-143 -168 0
-143 -171 0
-143 -170 0
-143 -172 0
-143 -187 0
-143 -186 0
-143 -188 0
-143 -179 0
-143 -178 0
-143 -180 0
-143 -183 0
-143 -182 0
-143 -184 0
-143 -191 0
-143 -190 0
-143 -192 0
-143 -195 0
-143 -194 0
-143 -196 0
-143 -211 0
-143 -210 0
-143 -212 0
-143 -203 0
-143 -202 0
-143 -204 0
-143 -207 0
-143 -206 0
-143 -208 0
-143 -215 0
-143 -214 0
-143 -216 0
-143 -219 0
-143 -218 0
-143 -220 0
-143 -235 0
-143 -234 0
-143 -236 0
-143 -227 0
-143 -226 0
-143 -228 0
-143 -231 0
-143 -230 0
-143 -232 0
-143 -239 0
-143 -238 0
-143 -240 0
-142 -144 0
-142 -147 0
-142 -146 0
-142 -148 0
-142 -163 0
-142 -162 0
-142 -164 0
-142 -155 0
-142 -154 0
-142 -156 0
-142 -159 0
-142 -158 0
-142 -160 0
-142 -167 0
-142 -166 0
-142 -168 0
-142 -171 0
-142 -170 0
-142 -172 0
-142 -187 0
-142 -186 0
-142 -188 0
-142 -179 0
-142 -178 0
-142 -180 0
-142 -183 0
-142 -182 0
-142 -184 0
-142 -191 0
-142 -190 0
-142 -192 0
-142 -195 0
-142 -194 0
-142 -196 0
-142 -211 0
-142 -210 0
-142 -212 0
-142 -203 0
-142 -202 0
-142 -204 0
-142 -207 0
-142 -206 0
-142 -208 0
-142 -215 0
-142 -214 0
-142 -216 0
-142 -219 0
-142 -218 0
-142 -220 0
-142 -235 0
-142 -234 0
-142 -236 0
-142 -227 0
-142 -226 0
-142 -228 0
-142 -231 0
-142 -230 0
-142 -232 0
-142 -239 0
-142 -238 0
-142 -240 0
-144 -147 0
-144 -146 0
-144 -148 0
-144 -163 0
-144 -162 0
-144 -164 0
-144 -155 0
-144 -154 0
-144 -156 0
-144 -159 0
-144 -158 0
-144 -160 0
-144 -167 0
-144 -166 0
-144 -168 0
-144 -171 0
-144 -170 0
-144 -172 0
-144 -187 0
-144 -186 0
-144 -188 0
-144 -179 0
-144 -178 0
-144 -180 0
-144 -183 0
-144 -182 0
-144 -184 0
-144 -191 0
-144 -190 0
-144 -192 0
-144 -195 0
-144 -194 0
-144 -196 0
-144 -211 0
-144 -210 0
-144 -212 0
-144 -203 0
-144 -202 0
-144 -204 0
-144 -207 0
-144 -206 0
-144 -208 0
-144 -215 0
-144 -214 0
-144 -216 0
-144 -219 0
-144 -218 0
-144 -220 0
-144 -235 0
-144 -234 0
-144 -236 0
-144 -227 0
-144 -226 0
-144 -228 0
-144 -231 0
-144 -230 0
-144 -232 0
-144 -239 0
-144 -238 0
-144 -240 0
-147 -146 0
-147 -148 0
-147 -163 0
-147 -162 0
-147 -164 0
-147 -155 0
-147 -154 0
-147 -156 0
-147 -159 0
-147 -158 0
-147 -160 0
-147 -167 0
-147 -166 0
-147 -168 0
-147 -171 0
-147 -170 0
-147 -172 0
-147 -187 0
-147 -186 0
-147 -188 0
-147 -179 0
-147 -178 0
-147 -180 0
-147 -183 0
-147 -182 0
-147 -184 0
-147 -191 0
-147 -190 0
-147 -192 0
-147 -195 0
-147 -194 0
-147 -196 0
-147 -211 0
-147 -210 0
-147 -212 0
-147 -203 0
-147 -202 0
-147 -204 0
-147 -207 0
-147 -206 0
-147 -208 0
-147 -215 0
-147 -214 0
-147 -216 0
-147 -219 0
-147 -218 0
-147 -220 0
-147 -235 0
-147 -234 0
-147 -236 0
-147 -227 0
-147 -226 0
-147 -228 0
-147 -231 0
-147 -230 0
-147 -232 0
-147 -239 0
-147 -238 0
-147 -240 0
-146 -148 0
-146 -163 0
-146 -162 0
-146 -164 0
-146 -155 0
-146 -154 0
-146 -156 0
-146 -159 0
-146 -158 0
-146 -160 0
-146 -167 0
-146 -166 0
-146 -168 0
-146 -171 0
-146 -170 0
-146 -172 0
-146 -187 0
-146 -186 0
-146 -188 0
-146 -179 0
-146 -178 0
-146 -180 0
-146 -183 0
-146 -182 0
-146 -184 0
-146 -191 0
-146 -190 0
-146 -192 0
-146 -195 0
-146 -194 0
-146 -196 0
-146 -211 0
-146 -210 0
-146 -212 0
-146 -203 0
-146 -202 0
-146 -204 0
-146 -207 0
-146 -206 0
-146 -208 0
-146 -215 0
-146 -214 0
-146 -216 0
-146 -219 0
-146 -218 0
-146 -220 0
-146 -235 0
-146 -234 0
-146 -236 0
-146 -227 0
-146 -226 0
-146 -228 0
-146 -231 0
-146 -230 0
-146 -232 0
-146 -239 0
-146 -238 0
-146 -240 0
-148 -163 0
-148 -162 0
-148 -164 0
-148 -155 0
-148 -154 0
-148 -156 0
-148 -159 0
-148 -158 0
-148 -160 0
-148 -167 0
-148 -166 0
-148 -168 0
-148 -171 0
-148 -170 0
-148 -172 0
-148 -187 0
-148 -186 0
-148 -188 0
-148 -179 0
-148 -178 0
-148 -180 0
-148 -183 0
-148 -182 0
-148 -184 0
-148 -191 0
-148 -190 0
-148 -192 0
-148 -195 0
-148 -194 0
-148 -196 0
-148 -211 0
-148 -210 0
-148 -212 0
-148 -203 0
-148 -202 0
-148 -204 0
-148 -207 0
-148 -206 0
-148 -208 0
-148 -215 0
-148 -214 0
-148 -216 0
-148 -219 0
-148 -218 0
-148 -220 0
-148 -235 0
-148 -234 0
-148 -236 0
-148 -227 0
-148 -226 0
-148 -228 0
-148 -231 0
-148 -230 0
-148 -232 0
-148 -239 0
-148 -238 0
-148 -240 0
-163 -162 0
-163 -164 0
-163 -155 0
-163 -154 0
-163 -156 0
-163 -159 0
-163 -158 0
-163 -160 0
-163 -167 0
-163 -166 0
-163 -168 0
-163 -171 0
-163 -170 0
-163 -172 0
-163 -187 0
-163 -186 0
-163 -188 0
-163 -179 0
-163 -178 0
-163 -180 0
-163 -183 0
-163 -182 0
-163 -184 0
-163 -191 0
-163 -190 0
-163 -192 0
-163 -195 0
-163 -194 0
-163 -196 0
-163 -211 0
-163 -210 0
-163 -212 0
-163 -203 0
-163 -202 0
-163 -204 0
-163 -207 0
-163 -206 0
-163 -208 0
-163 -215 0
-163 -214 0
-163 -216 0
-163 -219 0
-163 -218 0
-163 -220 0
-163 -235 0
-163 -234 0
-163 -236 0
-163 -227 0
-163 -226 0
-163 -228 0
-163 -231 0
-163 -230 0
-163 -232 0
-163 -239 0
-163 -238 0
-163 -240 0
-162 -164 0
-162 -155 0
-162 -154 0
-162 -156 0
-162 -159 0
-162 -158 0
-162 -160 0
-162 -167 0
-162 -166 0
-162 -168 0
-162 -171 0
-162 -170 0
-162 -172 0
-162 -187 0
-162 -186 0
-162 -188 0
-162 -179 0
-162 -178 0
-162 -180 0
-162 -183 0
-162 -182 0
-162 -184 0
-162 -191 0
-162 -190 0
-162 -192 0
-162 -195 0
-162 -194 0
-162 -196 0
-162 -211 0
-162 -210 0
-162 -212 0
-162 -203 0
-162 -202 0
-162 -204 0
-162 -207 0
-162 -206 0
-162 -208 0
-162 -215 0
-162 -214 0
-162 -216 0
-162 -219 0
-162 -218 0
-162 -220 0
-162 -235 0
-162 -234 0
-162 -236 0
-162 -227 0
-162 -226 0
-162 -228 0
-162 -231 0
-162 -230 0
-162 -232 0
-162 -239 0
-162 -238 0
-162 -240 0
-164 -155 0
-164 -154 0
-164 -156 0
-164 -159 0
-164 -158 0
-164 -160 0
-164 -167 0
-164 -166 0
-164 -168 0
-164 -171 0
-164 -170 0
-164 -172 0
-164 -187 0
-164 -186 0
-164 -188 0
-164 -179 0
-164 -178 0
-164 -180 0
-164 -183 0
-164 -182 0
-164 -184 0
-164 -191 0
-164 -190 0
-164 -192 0
-164 -195 0
-164 -194 0
-164 -196 0
-164 -211 0
-164 -210 0
-164 -212 0
-164 -203 0
-164 -202 0
-164 -204 0
-164 -207 0
-164 -206 0
-164 -208 0
-164 -215 0
-164 -214 0
-164 -216 0
-164 -219 0
-164 -218 0
-164 -220 0
-164 -235 0
-164 -234 0
-164 -236 0
-164 -227 0
-164 -226 0
-164 -228 0
-164 -231 0
-164 -230 0
-164 -232 0
-164 -239 0
-164 -238 0
-164 -240 0
-155 -154 0
-155 -156 0
-155 -159 0
-155 -158 0
-155 -160 0
-155 -167 0
-155 -166 0
-155 -168 0
-155 -171 0
-155 -170 0
-155 -172 0
-155 -187 0
-155 -186 0
-155 -188 0
-155 -179 0
-155 -178 0
-155 -180 0
-155 -183 0
-155 -182 0
-155 -184 0
-155 -191 0
-155 -190 0
-155 -192 0
-155 -195 0
-155 -194 0
-155 -196 0
-155 -211 0
-155 -210 0
-155 -212 0
-155 -203 0
-155 -202 0
-155 -204 0
-155 -207 0
-155 -206 0
-155 -208 0
-155 -215 0
-155 -214 0
-155 -216 0
-155 -219 0
-155 -218 0
-155 -220 0
-155 -235 0
-155 -234 0
-155 -236 0
-155 -227 0
-155 -226 0
-155 -228 0
-155 -231 0
-155 -230 0
-155 -232 0
-155 -239 0
-155 -238 0
-155 -240 0
-154 -156 0
-154 -159 0
-154 -158 0
-154 -160 0
-154 -167 0
-154 -166 0
-154 -168 0
-154 -171 0
-154 -170 0
-154 -172 0
-154 -187 0
-154 -186 0
-154 -188 0
-154 -179 0
-154 -178 0
-154 -180 0
-154 -183 0
-154 -182 0
-154 -184 0
-154 -191 0
-154 -190 0
-154 -192 0
-154 -195 0
-154 -194 0
-154 -196 0
-154 -211 0
-154 -210 0
-154 -212 0
-154 -203 0
-154 -202 0
-154 -204 0
-154 -207 0
-154 -206 0
-154 -208 0
-154 -215 0
-154 -214 0
-154 -216 0
-154 -219 0
-154 -218 0
-154 -220 0
-154 -235 0
-154 -234 0
-154 -236 0
-154 -227 0
-154 -226 0
-154 -228 0
-154 -231 0
-154 -230 0
-154 -232 0
-154 -239 0
-154 -238 0
-154 -240 0
-156 -159 0
-156 -158 0
-156 -160 0
-156 -167 0
-156 -166 0
-156 -168 0
-156 -171 0
-156 -170 0
-156 -172 0
-156 -187 0
-156 -186 0
-156 -188 0
-156 -179 0
-156 -178 0
-156 -180 0
-156 -183 0
-156 -182 0
-156 -184 0
-156 -191 0
-156 -190 0
-156 -192 0
-156 -195 0
-156 -194 0
-156 -196 0
-156 -211 0
-156 -210 0
-156 -212 0
-156 -203 0
-156 -202 0
-156 -204 0
-156 -207 0
-156 -206 0
-156 -208 0
-156 -215 0
-156 -214 0
-156 -216 0
-156 -219 0
-156 -218 0
-156 -220 0
-156 -235 0
-156 -234 0
-156 -236 0
-156 -227 0
-156 -226 0
-156 -228 0
-156 -231 0
-156 -230 0
-156 -232 0
-156 -239 0
-156 -238 0
-156 -240 0
-159 -158 0
-159 -160 0
-159 -167 0
-159 -166 0
-159 -168 0
-159 -171 0
-159 -170 0
-159 -172 0
-159 -187 0
-159 -186 0
-159 -188 0
-159 -179 0
-159 -178 0
-159 -180 0
-159 -183 0
-159 -182 0
-159 -184 0
-159 -191 0
-159 -190 0
-159 -192 0
-159 -195 0
-159 -194 0
-159 -196 0
-159 -211 0
-159 -210 0
-159 -212 0
-159 -203 0
-159 -202 0
-159 -204 0
-159 -207 0
-159 -206 0
-159 -208 0
-159 -215 0
-159 -214 0
-159 -216 0
-159 -219 0
-159 -218 0
-159 -220 0
-159 -235 0
-159 -234 0
-159 -236 0
-159 -227 0
-159 -226 0
-159 -228 0
-159 -231 0
-159 -230 0
-159 -232 0
-159 -239 0
-159 -238 0
-159 -240 0
-158 -160 0
-158 -167 0
-158 -166 0
-158 -168 0
-158 -171 0
-158 -170 0
-158 -172 0
-158 -187 0
-158 -186 0
-158 -188 0
-158 -179 0
-158 -178 0
-158 -180 0
-158 -183 0
-158 -182 0
-158 -184 0
-158 -191 0
-158 -190 0
-158 -192 0
-158 -195 0
-158 -194 0
-158 -196 0
-158 -211 0
-158 -210 0
-158 -212 0
-158 -203 0
-158 -202 0
-158 -204 0
-158 -207 0
-158 -206 0
-158 -208 0
-158 -215 0
-158 -214 0
-158 -216 0
-158 -219 0
-158 -218 0
-158 -220 0
-158 -235 0
-158 -234 0
-158 -236 0
-158 -227 0
-158 -226 0
-158 -228 0
-158 -231 0
-158 -230 0
-158 -232 0
-158 -239 0
-158 -238 0
-158 -240 0
-160 -167 0
-160 -166 0
-160 -168 0
-160 -171 0
-160 -170 0
-160 -172 0
-160 -187 0
-160 -186 0
-160 -188 0
-160 -179 0
-160 -178 0
-160 -180 0
-160 -183 0
-160 -182 0
-160 -184 0
-160 -191 0
-160 -190 0
-160 -192 0
-160 -195 0
-160 -194 0
-160 -196 0
-160 -211 0
-160 -210 0
-160 -212 0
-160 -203 0
-160 -202 0
-160 -204 0
-160 -207 0
-160 -206 0
-160 -208 0
-160 -215 0
-160 -214 0
-160 -216 0
-160 -219 0
-160 -218 0
-160 -220 0
-160 -235 0
-160 -234 0
-160 -236 0
-160 -227 0
-160 -226 0
-160 -228 0
-160 -231 0
-160 -230 0
-160 -232 0
-160 -239 0
-160 -238 0
-160 -240 0
-167 -166 0
-167 -168 0
-167 -171 0
-167 -170 0
-167 -172 0
-167 -187 0
-167 -186 0
-167 -188 0
-167 -179 0
-167 -178 0
-167 -180 0
-167 -183 0
-167 -182 0
-167 -184 0
-167 -191 0
-167 -190 0
-167 -192 0
-167 -195 0
-167 -194 0
-167 -196 0
-167 -211 0
-167 -210 0
-167 -212 0
-167 -203 0
-167 -202 0
-167 -204 0
-167 -207 0
-167 -206 0
-167 -208 0
-167 -215 0
-167 -214 0
-167 -216 0
-167 -219 0
-167 -218 0
-167 -220 0
-167 -235 0
-167 -234 0
-167 -236 0
-167 -227 0
-167 -226 0
-167 -228 0
-167 -231 0
-167 -230 0
-167 -232 0
-167 -239 0
-167 -238 0
-167 -240 0
-166 -168 0
-166 -171 0
-166 -170 0
-166 -172 0
-166 -187 0
-166 -186 0
-166 -188 0
-166 -179 0
-166 -178 0
-166 -180 0
-166 -183 0
-166 -182 0
-166 -184 0
-166 -191 0
-166 -190 0
-166 -192 0
-166 -195 0
-166 -194 0
-166 -196 0
-166 -211 0
-166 -210 0
-166 -212 0
-166 -203 0
-166 -202 0
-166 -204 0
-166 -207 0
-166 -206 0
-166 -208 0
-166 -215 0
-166 -214 0
-166 -216 0
-166 -219 0
-166 -218 0
-166 -220 0
-166 -235 0
-166 -234 0
-166 -236 0
-166 -227 0
-166 -226 0
-166 -228 0
-166 -231 0
-166 -230 0
-166 -232 0
-166 -239 0
-166 -238 0
-166 -240 0
-168 -171 0
-168 -170 0
-168 -172 0
-168 -187 0
-168 -186 0
-168 -188 0
-168 -179 0
-168 -178 0
-168 -180 0
-168 -183 0
-168 -182 0
-168 -184 0
-168 -191 0
-168 -190 0
-168 -192 0
-168 -195 0
-168 -194 0
-168 -196 0
-168 -211 0
-168 -210 0
-168 -212 0
-168 -203 0
-168 -202 0
-168 -204 0
-168 -207 0
-168 -206 0
-168 -208 0
-168 -215 0
-168 -214 0
-168 -216 0
-168 -219 0
-168 -218 0
-168 -220 0
-168 -235 0
-168 -234 0
-168 -236 0
-168 -227 0
-168 -226 0
-168 -228 0
-168 -231 0
-168 -230 0
-168 -232 0
-168 -239 0
-168 -238 0
-168 -240 0
-171 -170 0
-171 -172 0
-171 -187 0
-171 -186 0
-171 -188 0
-171 -179 0
-171 -178 0
-171 -180 0
-171 -183 0
-171 -182 0
-171 -184 0
-171 -191 0
-171 -190 0
-171 -192 0
-171 -195 0
-171 -194 0
-171 -196 0
-171 -211 0
-171 -210 0
-171 -212 0
-171 -203 0
-171 -202 0
-171 -204 0
-171 -207 0
-171 -206 0
-171 -208 0
-171 -215 0
-171 -214 0
-171 -216 0
-171 -219 0
-171 -218 0
-171 -220 0
-171 -235 0
-171 -234 0
-171 -236 0
-171 -227 0
-171 -226 0
-171 -228 0
-171 -231 0
-171 -230 0
-171 -232 0
-171 -239 0
-171 -238 0
-171 -240 0
-170 -172 0
-170 -187 0
-170 -186 0
-170 -188 0
-170 -179 0
-170 -178 0
-170 -180 0
-170 -183 0
-170 -182 0
-170 -184 0
-170 -191 0
-170 -190 0
-170 -192 0
-170 -195 0
-170 -194 0
-170 -196 0
-170 -211 0
-170 -210 0
-170 -212 0
-170 -203 0
-170 -202 0
-170 -204 0
-170 -207 0
-170 -206 0
-170 -208 0
-170 -215 0
-170 -214 0
-170 -216 0
-170 -219 0
-170 -218 0
-170 -220 0
-170 -235 0
-170 -234 0
-170 -236 0
-170 -227 0
-170 -226 0
-170 -228 0
-170 -231 0
-170 -230 0
-170 -232 0
-170 -239 0
-170 -238 0
-170 -240 0
-172 -187 0
-172 -186 0
-172 -188 0
-172 -179 0
-172 -178 0
-172 -180 0
-172 -183 0
-172 -182 0
-172 -184 0
-172 -191 0
-172 -190 0
-172 -192 0
-172 -195 0
-172 -194 0
-172 -196 0
-172 -211 0
-172 -210 0
-172 -212 0
-172 -203 0
-172 -202 0
-172 -204 0
-172 -207 0
-172 -206 0
-172 -208 0
-172 -215 0
-172 -214 0
-172 -216 0
-172 -219 0
-172 -218 0
-172 -220 0
-172 -235 0
-172 -234 0
-172 -236 0
-172 -227 0
-172 -226 0
-172 -228 0
-172 -231 0
-172 -230 0
-172 -232 0
-172 -239 0
-172 -238 0
-172 -240 0
-187 -186 0
-187 -188 0
-187 -179 0
-187 -178 0
-187 -180 0
-187 -183 0
-187 -182 0
-187 -184 0
-187 -191 0
-187 -190 0
-187 -192 0
-187 -195 0
-187 -194 0
-187 -196 0
-187 -211 0
-187 -210 0
-187 -212 0
-187 -203 0
-187 -202 0
-187 -204 0
-187 -207 0
-187 -206 0
-187 -208 0
-187 -215 0
-187 -214 0
-187 -216 0
-187 -219 0
-187 -218 0
-187 -220 0
-187 -235 0
-187 -234 0
-187 -236 0
-187 -227 0
-187 -226 0
-187 -228 0
-187 -231 0
-187 -230 0
-187 -232 0
-187 -239 0
-187 -238 0
-187 -240 0
-186 -188 0
-186 -179 0
-186 -178 0
-186 -180 0
-186 -183 0
-186 -182 0
-186 -184 0
-186 -191 0
-186 -190 0
-186 -192 0
-186 -195 0
-186 -194 0
-186 -196 0
-186 -211 0
-186 -210 0
-186 -212 0
-186 -203 0
-186 -202 0
-186 -204 0
-186 -207 0
-186 -206 0
-186 -208 0
-186 -215 0
-186 -214 0
-186 -216 0
-186 -219 0
-186 -218 0
-186 -220 0
-186 -235 0
-186 -234 0
-186 -236 0
-186 -227 0
-186 -226 0
-186 -228 0
-186 -231 0
-186 -230 0
-186 -232 0
-186 -239 0
-186 -238 0
-186 -240 0
-188 -179 0
-188 -178 0
-188 -180 0
-188 -183 0
-188 -182 0
-188 -184 0
-188 -191 0
-188 -190 0
-188 -192 0
-188 -195 0
-188 -194 0
-188 -196 0
-188 -211 0
-188 -210 0
-188 -212 0
-188 -203 0
-188 -202 0
-188 -204 0
-188 -207 0
-188 -206 0
-188 -208 0
-188 -215 0
-188 -214 0
-188 -216 0
-188 -219 0
-188 -218 0
-188 -220 0
-188 -235 0
-188 -234 0
-188 -236 0
-188 -227 0
-188 -226 0
-188 -228 0
-188 -231 0
-188 -230 0
-188 -232 0
-188 -239 0
-188 -238 0
-188 -240 0
-179 -178 0
-179 -180 0
-179 -183 0
-179 -182 0
-179 -184 0
-179 -191 0
-179 -190 0
-179 -192 0
-179 -195 0
-179 -194 0
-179 -196 0
-179 -211 0
-179 -210 0
-179 -212 0
-179 -203 0
-179 -202 0
-179 -204 0
-179 -207 0
-179 -206 0
-179 -208 0
-179 -215 0
-179 -214 0
-179 -216 0
-179 -219 0
-179 -218 0
-179 -220 0
-179 -235 0
-179 -234 0
-179 -236 0
-179 -227 0
-179 -226 0
-179 -228 0
-179 -231 0
-179 -230 0
-179 -232 0
-179 -239 0
-179 -238 0
-179 -240 0
-178 -180 0
-178 -183 0
-178 -182 0
-178 -184 0
-178 -191 0
-178 -190 0
-178 -192 0
-178 -195 0
-178 -194 0
-178 -196 0
-178 -211 0
-178 -210 0
-178 -212 0
-178 -203 0
-178 -202 0
-178 -204 0
-178 -207 0
-178 -206 0
-178 -208 0
-178 -215 0
-178 -214 0
-178 -216 0
-178 -219 0
-178 -218 0
-178 -220 0
-178 -235 0
-178 -234 0
-178 -236 0
-178 -227 0
-178 -226 0
-178 -228 0
-178 -231 0
-178 -230 0
-178 -232 0
-178 -239 0
-178 -238 0
-178 -240 0
-180 -183 0
-180 -182 0
-180 -184 0
-180 -191 0
-180 -190 0
-180 -192 0
-180 -195 0
-180 -194 0
-180 -196 0
-180 -211 0
-180 -210 0
-180 -212 0
-180 -203 0
-180 -202 0
-180 -204 0
-180 -207 0
-180 -206 0
-180 -208 0
-180 -215 0
-180 -214 0
-180 -216 0
-180 -219 0
-180 -218 0
-180 -220 0
-180 -235 0
-180 -234 0
-180 -236 0
-180 -227 0
-180 -226 0
-180 -228 0
-180 -231 0
-180 -230 0
-180 -232 0
-180 -239 0
-180 -238 0
-180 -240 0
-183 -182 0
-183 -184 0
-183 -191 0
-183 -190 0
-183 -192 0
-183 -195 0
-183 -194 0
-183 -196 0
-183 -211 0
-183 -210 0
-183 -212 0
-183 -203 0
-183 -202 0
-183 -204 0
-183 -207 0
-183 -206 0
-183 -208 0
-183 -215 0
-183 -214 0
-183 -216 0
-183 -219 0
-183 -218 0
-183 -220 0
-183 -235 0
-183 -234 0
-183 -236 0
-183 -227 0
-183 -226 0
-183 -228 0
-183 -231 0
-183 -230 0
-183 -232 0
-183 -239 0
-183 -238 0
-183 -240 0
-182 -184 0
-182 -191 0
-182 -190 0
-182 -192 0
-182 -195 0
-182 -194 0
-182 -196 0
-182 -211 0
-182 -210 0
-182 -212 0
-182 -203 0
-182 -202 0
-182 -204 0
-182 -207 0
-182 -206 0
-182 -208 0
-182 -215 0
-182 -214 0
-182 -216 0
-182 -219 0
-182 -218 0
-182 -220 0
-182 -235 0
-182 -234 0
-182 -236 0
-182 -227 0
-182 -226 0
-182 -228 0
-182 -231 0
-182 -230 0
-182 -232 0
-182 -239 0
-182 -238 0
-182 -240 0
-184 -191 0
-184 -190 0
-184 -192 0
-184 -195 0
-184 -194 0
-184 -196 0
-184 -211 0
-184 -210 0
-184 -212 0
-184 -203 0
-184 -202 0
-184 -204 0
-184 -207 0
-184 -206 0
-184 -208 0
-184 -215 0
-184 -214 0
-184 -216 0
-184 -219 0
-184 -218 0
-184 -220 0
-184 -235 0
-184 -234 0
-184 -236 0
-184 -227 0
-184 -226 0
-184 -228 0
-184 -231 0
-184 -230 0
-184 -232 0
-184 -239 0
-184 -238 0
-184 -240 0
-191 -190 0
-191 -192 0
-191 -195 0
-191 -194 0
-191 -196 0
-191 -211 0
-191 -210 0
-191 -212 0
-191 -203 0
-191 -202 0
-191 -204 0
-191 -207 0
-191 -206 0
-191 -208 0
-191 -215 0
-191 -214 0
-191 -216 0
-191 -219 0
-191 -218 0
-191 -220 0
-191 -235 0
-191 -234 0
-191 -236 0
-191 -227 0
-191 -226 0
-191 -228 0
-191 -231 0
-191 -230 0
-191 -232 0
-191 -239 0
-191 -238 0
-191 -240 0
-190 -192 0
-190 -195 0
-190 -194 0
-190 -196 0
-190 -211 0
-190 -210 0
-190 -212 0
-190 -203 0
-190 -202 0
-190 -204 0
-190 -207 0
-190 -206 0
-190 -208 0
-190 -215 0
-190 -214 0
-190 -216 0
-190 -219 0
-190 -218 0
-190 -220 0
-190 -235 0
-190 -234 0
-190 -236 0
-190 -227 0
-190 -226 0
-190 -228 0
-190 -231 0
-190 -230 0
-190 -232 0
-190 -239 0
-190 -238 0
-190 -240 0
-192 -195 0
-192 -194 0
-192 -196 0
-192 -211 0
-192 -210 0
-192 -212 0
-192 -203 0
-192 -202 0
-192 -204 0
-192 -207 0
-192 -206 0
-192 -208 0
-192 -215 0
-192 -214 0
-192 -216 0
-192 -219 0
-192 -218 0
-192 -220 0
-192 -235 0
-192 -234 0
-192 -236 0
-192 -227 0
-192 -226 0
-192 -228 0
-192 -231 0
-192 -230 0
-192 -232 0
-192 -239 0
-192 -238 0
-192 -240 0
-195 -194 0
-195 -196 0
-195 -211 0
-195 -210 0
-195 -212 0
-195 -203 0
-195 -202 0
-195 -204 0
-195 -207 0
-195 -206 0
-195 -208 0
-195 -215 0
-195 -214 0
-195 -216 0
-195 -219 0
-195 -218 0
-195 -220 0
-195 -235 0
-195 -234 0
-195 -236 0
-195 -227 0
-195 -226 0
-195 -228 0
-195 -231 0
-195 -230 0
-195 -232 0
-195 -239 0
-195 -238 0
-195 -240 0
-194 -196 0
-194 -211 0
-194 -210 0
-194 -212 0
-194 -203 0
-194 -202 0
-194 -204 0
-194 -207 0
-194 -206 0
-194 -208 0
-194 -215 0
-194 -214 0
-194 -216 0
-194 -219 0
-194 -218 0
-194 -220 0
-194 -235 0
-194 -234 0
-194 -236 0
-194 -227 0
-194 -226 0
-194 -228 0
-194 -231 0
-194 -230 0
-194 -232 0
-194 -239 0
-194 -238 0
-194 -240 0
-196 -211 0
-196 -210 0
-196 -212 0
-196 -203 0
-196 -202 0
-196 -204 0
-196 -207 0
-196 -206 0
-196 -208 0
-196 -215 0
-196 -214 0
-196 -216 0
-196 -219 0
-196 -218 0
-196 -220 0
-196 -235 0
-196 -234 0
-196 -236 0
-196 -227 0
-196 -226 0
-196 -228 0
-196 -231 0
-196 -230 0
-196 -232 0
-196 -239 0
-196 -238 0
-196 -240 0
-211 -210 0
-211 -212 0
-211 -203 0
-211 -202 0
-211 -204 0
-211 -207 0
-211 -206 0
-211 -208 0
-211 -215 0
-211 -214 0
-211 -216 0
-211 -219 0
-211 -218 0
-211 -220 0
-211 -235 0
-211 -234 0
-211 -236 0
-211 -227 0
-211 -226 0
-211 -228 0
-211 -231 0
-211 -230 0
-211 -232 0
-211 -239 0
-211 -238 0
-211 -240 0
-210 -212 0
-210 -203 0
-210 -202 0
-210 -204 0
-210 -207 0
-210 -206 0
-210 -208 0
-210 -215 0
-210 -214 0
-210 -216 0
-210 -219 0
-210 -218 0
-210 -220 0
-210 -235 0
-210 -234 0
-210 -236 0
-210 -227 0
-210 -226 0
-210 -228 0
-210 -231 0
-210 -230 0
-210 -232 0
-210 -239 0
-210 -238 0
-210 -240 0
-212 -203 0
-212 -202 0
-212 -204 0
-212 -207 0
-212 -206 0
-212 -208 0
-212 -215 0
-212 -214 0
-212 -216 0
-212 -219 0
-212 -218 0
-212 -220 0
-212 -235 0
-212 -234 0
-212 -236 0
-212 -227 0
-212 -226 0
-212 -228 0
-212 -231 0
-212 -230 0
-212 -232 0
-212 -239 0
-212 -238 0
-212 -240 0
-203 -202 0
-203 -204 0
-203 -207 0
-203 -206 0
-203 -208 0
-203 -215 0
-203 -214 0
-203 -216 0
-203 -219 0
-203 -218 0
-203 -220 0
-203 -235 0
-203 -234 0
-203 -236 0
-203 -227 0
-203 -226 0
-203 -228 0
-203 -231 0
-203 -230 0
-203 -232 0
-203 -239 0
-203 -238 0
-203 -240 0
-202 -204 0
-202 -207 0
-202 -206 0
-202 -208 0
-202 -215 0
-202 -214 0
-202 -216 0
-202 -219 0
-202 -218 0
-202 -220 0
-202 -235 0
-202 -234 0
-202 -236 0
-202 -227 0
-202 -226 0
-202 -228 0
-202 -231 0
-202 -230 0
-202 -232 0
-202 -239 0
-202 -238 0
-202 -240 0
-204 -207 0
-204 -206 0
-204 -208 0
-204 -215 0
-204 -214 0
-204 -216 0
-204 -219 0
-204 -218 0
-204 -220 0
-204 -235 0
-204 -234 0
-204 -236 0
-204 -227 0
-204 -226 0
-204 -228 0
-204 -231 0
-204 -230 0
-204 -232 0
-204 -239 0
-204 -238 0
-204 -240 0
-207 -206 0
-207 -208 0
-207 -215 0
-207 -214 0
-207 -216 0
-207 -219 0
-207 -218 0
-207 -220 0
-207 -235 0
-207 -234 0
-207 -236 0
-207 -227 0
-207 -226 0
-207 -228 0
-207 -231 0
-207 -230 0
-207 -232 0
-207 -239 0
-207 -238 0
-207 -240 0
-206 -208 0
-206 -215 0
-206 -214 0
-206 -216 0
-206 -219 0
-206 -218 0
-206 -220 0
-206 -235 0
-206 -234 0
-206 -236 0
-206 -227 0
-206 -226 0
-206 -228 0
-206 -231 0
-206 -230 0
-206 -232 0
-206 -239 0
-206 -238 0
-206 -240 0
-208 -215 0
-208 -214 0
-208 -216 0
-208 -219 0
-208 -218 0
-208 -220 0
-208 -235 0
-208 -234 0
-208 -236 0
-208 -227 0
-208 -226 0
-208 -228 0
-208 -231 0
-208 -230 0
-208 -232 0
-208 -239 0
-208 -238 0
-208 -240 0
-215 -214 0
-215 -216 0
-215 -219 0
-215 -218 0
-215 -220 0
-215 -235 0
-215 -234 0
-215 -236 0
-215 -227 0
-215 -226 0
-215 -228 0
-215 -231 0
-215 -230 0
-215 -232 0
-215 -239 0
-215 -238 0
-215 -240 0
-214 -216 0
-214 -219 0
-214 -218 0
-214 -220 0
-214 -235 0
-214 -234 0
-214 -236 0
-214 -227 0
-214 -226 0
-214 -228 0
-214 -231 0
-214 -230 0
-214 -232 0
-214 -239 0
-214 -238 0
-214 -240 0
-216 -219 0
-216 -218 0
-216 -220 0
-216 -235 0
-216 -234 0
-216 -236 0
-216 -227 0
-216 -226 0
-216 -228 0
-216 -231 0
-216 -230 0
-216 -232 0
-216 -239 0
-216 -238 0
-216 -240 0
-219 -218 0
-219 -220 0
-219 -235 0
-219 -234 0
-219 -236 0
-219 -227 0
-219 -226 0
-219 -228 0
-219 -231 0
-219 -230 0
-219 -232 0
-219 -239 0
-219 -238 0
-219 -240 0
-218 -220 0
-218 -235 0
-218 -234 0
-218 -236 0
-218 -227 0
-218 -226 0
-218 -228 0
-218 -231 0
-218 -230 0
-218 -232 0
-218 -239 0
-218 -238 0
-218 -240 0
-220 -235 0
-220 -234 0
-220 -236 0
-220 -227 0
-220 -226 0
-220 -228 0
-220 -231 0
-220 -230 0
-220 -232 0
-220 -239 0
-220 -238 0
-220 -240 0
-235 -234 0
-235 -236 0
-235 -227 0
-235 -226 0
-235 -228 0
-235 -231 0
-235 -230 0
-235 -232 0
-235 -239 0
-235 -238 0
-235 -240 0
-234 -236 0
-234 -227 0
-234 -226 0
-234 -228 0
-234 -231 0
-234 -230 0
-234 -232 0
-234 -239 0
-234 -238 0
-234 -240 0
-236 -227 0
-236 -226 0
-236 -228 0
-236 -231 0
-236 -230 0
-236 -232 0
-236 -239 0
-236 -238 0
-236 -240 0
-227 -226 0
-227 -228 0
-227 -231 0
-227 -230 0
-227 -232 0
-227 -239 0
-227 -238 0
-227 -240 0
-226 -228 0
-226 -231 0
-226 -230 0
-226 -232 0
-226 -239 0
-226 -238 0
-226 -240 0
-228 -231 0
-228 -230 0
-228 -232 0
-228 -239 0
-228 -238 0
-228 -240 0
-231 -230 0
-231 -232 0
-231 -239 0
-231 -238 0
-231 -240 0
-230 -232 0
-230 -239 0
-230 -238 0
-230 -240 0
-232 -239 0
-232 -238 0
-232 -240 0
-239 -238 0
-239 -240 0
-238 -240 0
-123 3 0
-122 2 0
-124 4 0
-139 19 0
-138 18 0
-140 20 0
-131 11 0
-130 10 0
-132 12 0
-135 15 0
-134 14 0
-136 16 0
-143 23 0
-142 22 0
-144 24 0
-147 27 0
-146 26 0
-148 28 0
-163 43 0
-162 42 0
-164 44 0
-155 35 0
-154 34 0
-156 36 0
-159 39 0
-158 38 0
-160 40 0
-167 47 0
-166 46 0
-168 48 0
-171 51 0
-170 50 0
-172 52 0
-187 67 0
-186 66 0
-188 68 0
-179 59 0
-178 58 0
-180 60 0
-183 63 0
-182 62 0
-184 64 0
-191 71 0
-190 70 0
-192 72 0
-195 75 0
-194 74 0
-196 76 0
-211 91 0
-210 90 0
-212 92 0
-203 83 0
-202 82 0
-204 84 0
-207 87 0
-206 86 0
-208 88 0
-215 95 0
-214 94 0
-216 96 0
-219 99 0
-218 98 0
-220 100 0
-235 115 0
-234 114 0
-236 116 0
-227 107 0
-226 106 0
-228 108 0
-231 111 0
-230 110 0
-232 112 0
-239 119 0
-238 118 0
-240 120 0
-122 0
-123 0
-124 0
-130 0
-131 0
-132 0
-134 0
-135 0
-136 0
-138 0
-139 0
-140 0
-142 0
-143 0
-144 0
-146 0
-147 0
-148 0
-154 0
-155 0
-156 0
-158 0
-159 0
-160 0
-162 0
-163 0
-164 0
-166 0
-167 0
-168 0
-170 0
-171 0
-172 0
-178 0
-179 0
-180 0
-182 0
-183 0
-184 0
-186 0
-187 0
-188 0
-190 0
-191 0
-192 0
-194 0
-195 0
-196 0
-202 0
-203 0
-204 0
-206 0
-207 0
-208 0
-210 0
-211 0
-212 0
-214 0
-215 0
-216 0
-218 0
-219 0
-220 0
-226 0
-227 0
-228 0
-230 0
-231 0
-232 0
-234 0
-235 0
-236 0
-238 0
-239 0
-240 0
